# Objective value = 8.9207696026742474e+02
ch1_1_evap_u0 0
ch1_1_evap_v0 -1
ch1_1_evap_u1 1
ch1_1_evap_v1 0
ch2_1_evap_u0 0
ch2_1_evap_v0 -1
ch2_1_evap_u1 1
ch2_1_evap_v1 0
ch3_1_evap_u0 0
ch3_1_evap_v0 -1
ch3_1_evap_u1 1
ch3_1_evap_v1 0
ch1_1_evap_u0_y 0
ch1_1_evap_u1_y 1
ch2_1_evap_u0_y 0
ch2_1_evap_u1_y 1
ch3_1_evap_u0_y 0
ch3_1_evap_u1_y 1
sp1_temp_t_inout 0
sp1_temp_y 1
sp2_temp_t_inout 0
sp2_temp_y 1
ch1_1_evap_v0_y 1
ch1_1_evap_v1_y 1
ch2_1_evap_v0_y 1
ch2_1_evap_v1_y 1
ch3_1_evap_v0_y 1
ch3_1_evap_v1_y 1
cb_ss_u0 0
cb_ss_u0_y 1
cb_ss_v0 -1
cb_ss_v0_y 1
cb_ss_u1 1
cb_ss_u1_y 1
cb_ss_v1 0
cb_ss_v1_y 1
cp_nwk_u0 0
cp_nwk_u0_y 1
cp_nwk_v0 -1
cp_nwk_v0_y 1
cp_nwk_u1 1
cp_nwk_u1_y 1
cp_nwk_v1 0
cp_nwk_v1_y 1
ch1_1_evap_y 1
ch2_1_evap_y 1
ch3_1_evap_y 1
cb_ss_y 1
cp_nwk_y 1
ch_evap_ret_t_in 0
ch_evap_ret_y 1
ch_e_f_c_mass_flow 0
ch_e_f_c_y 1
